
Gurobi 8.0.0 (linux64, Python) logging started Thu May 24 14:58:19 2018


Gurobi 8.0.0 (linux64, Python) logging started Thu May 24 15:02:22 2018

Academic license - for non-commercial use only
Freed default Gurobi environment

Gurobi 8.0.0 (linux64, Python) logging started Thu May 24 15:34:22 2018

Academic license - for non-commercial use only
Freed default Gurobi environment

Gurobi 8.0.0 (linux64, Python) logging started Thu May 24 16:06:49 2018

Academic license - for non-commercial use only
Freed default Gurobi environment
